! ================================================================
! Input file for PCGamess
! ================================================================
 $CONTRL RUNTYP=Energy $END
 $CONTRL SCFTYP=UHF $END
 $CONTRL ICHARG=1  MULT=2 $END
 $BASIS GBASIS=N31 NGAUSS=6 $END
 $DATA
Molecule specification
C1
H  1.000000 -2.397000 -0.034000 -0.635334
H  1.000000 -1.088000 -2.140000 -0.622333
C  6.000000 -1.353000 -0.019000 -0.358333
C  6.000000 -0.614000 -1.208000 -0.351333
H  1.000000 -1.309000 2.106000 -0.012333
C  6.000000 -0.739000 1.189000 -0.007333
C  6.000000 0.739000 -1.189000 0.006667
H  1.000000 1.309000 -2.106000 0.012666
C  6.000000 0.614000 1.208000 0.351667
C  6.000000 1.353000 0.019000 0.358667
H  1.000000 1.088000 2.140000 0.622666
H  1.000000 2.397000 0.034000 0.634666
 $END
