 $CONTRL COORD=CART UNITS=ANGS $END

 $DATA
XYZ file generated by gabedit : coordinates in Angstrom
C1
C      6.0      3.6606960000    0.0000000000   -1.3498190000 
C      6.0      3.5711560000    1.2847280000   -0.3971710000 
C      6.0      3.5674270000    0.7959400000    1.1181710000 
C      6.0      3.5674270000   -0.7959400000    1.1181710000 
C      6.0      3.5711560000   -1.2847280000   -0.3971710000 
C      6.0      0.5733590000    0.7997660000   -3.7439140000 
C      6.0      1.9199210000    1.2919720000   -3.0394440000 
C      6.0      2.7022920000    0.0000000000   -2.5467970000 
C      6.0      1.9199210000   -1.2919720000   -3.0394440000 
C      6.0      0.5733590000   -0.7997660000   -3.7439140000 
C      6.0      0.5748580000    3.8218600000   -0.3737370000 
C      6.0      1.9332080000    3.3282730000    0.3006120000 
C      6.0      2.7741210000    2.5364250000   -0.8012920000 
C      6.0      1.9309930000    2.5431930000   -2.1563890000 
C      6.0      0.5723970000    3.3340140000   -1.8916810000 
C      6.0      0.5781060000    1.5647990000    3.5377810000 
C      6.0      1.9345690000    0.7673890000    3.2773810000 
C      6.0      2.7728770000    1.5659980000    2.1800230000 
C      6.0      1.9337180000    2.8554950000    1.7606130000 
C      6.0      0.5773090000    2.8550890000    2.6001990000 
C      6.0      0.5773090000   -2.8550890000    2.6001990000 
C      6.0      1.9337180000   -2.8554950000    1.7606130000 
C      6.0      2.7728770000   -1.5659980000    2.1800230000 
C      6.0      1.9345690000   -0.7673890000    3.2773810000 
C      6.0      0.5781060000   -1.5647990000    3.5377810000 
C      6.0      0.5723970000   -3.3340140000   -1.8916810000 
C      6.0      1.9309930000   -2.5431930000   -2.1563890000 
C      6.0      2.7741210000   -2.5364250000   -0.8012920000 
C      6.0      1.9332080000   -3.3282730000    0.3006120000 
C      6.0      0.5748580000   -3.8218600000   -0.3737370000 
C      6.0     -3.7329380000    0.7975170000   -1.0656950000 
C      6.0     -3.7318230000    1.2903930000    0.4512580000 
C      6.0     -3.7310190000    0.0000000000    1.3887820000 
C      6.0     -3.7318230000   -1.2903930000    0.4512580000 
C      6.0     -3.7329380000   -0.7975170000   -1.0656950000 
C      6.0     -0.7319800000    2.8544750000   -2.5425580000 
C      6.0     -2.0887050000    2.8554840000   -1.7039990000 
C      6.0     -2.9276840000    1.5649590000   -2.1226280000 
C      6.0     -2.0897620000    0.7669350000   -3.2205600000 
C      6.0     -0.7320420000    1.5624580000   -3.4784830000 
C      6.0     -0.7288400000    3.3301530000    1.9501700000 
C      6.0     -2.0851570000    2.5319070000    2.2101270000 
C      6.0     -2.9246260000    2.5315930000    0.8539270000 
C      6.0     -2.0869700000    3.3289950000   -0.2443780000 
C      6.0     -0.7300690000    3.8229610000    0.4333080000 
C      6.0     -0.7267430000   -0.7975220000    3.7887470000 
C      6.0     -2.0842380000   -1.2904010000    3.1118240000 
C      6.0     -2.9232130000    0.0000000000    2.6933410000 
C      6.0     -2.0842380000    1.2904010000    3.1118240000 
C      6.0     -0.7267430000    0.7975220000    3.7887470000 
C      6.0     -0.7300690000   -3.8229610000    0.4333080000 
C      6.0     -2.0869700000   -3.3289950000   -0.2443780000 
C      6.0     -2.9246260000   -2.5315930000    0.8539270000 
C      6.0     -2.0851570000   -2.5319070000    2.2101270000 
C      6.0     -0.7288400000   -3.3301530000    1.9501700000 
C      6.0     -0.7320420000   -1.5624580000   -3.4784830000 
C      6.0     -2.0897620000   -0.7669350000   -3.2205600000 
C      6.0     -2.9276840000   -1.5649590000   -2.1226280000 
C      6.0     -2.0887050000   -2.8554840000   -1.7039990000 
C      6.0     -0.7319800000   -2.8544750000   -2.5425580000 
H      1.0      4.6663560000    0.0000000000   -1.7699260000 
 $END


